p cnf 15 27
-15 14 5 0
-15 -14 -4 0
-15 -14 2 0
15 13 -2 0
15 -11 9 0
-15 -8 6 0
-15 -8 3 0
-15 -5 2 0
-14 -13 -7 0
-14 12 2 0
-14 11 10 0
14 -10 -7 0
-13 -11 -9 0
-13 -11 -6 0
-13 8 6 0
-13 6 -5 0
-12 9 8 0
12 4 3 0
-11 -6 4 0
10 6 -1 0
10 -5 2 0
-9 -8 1 0
8 -7 3 0
8 3 -2 0
7 6 5 0
-6 2 -1 0
-5 -3 -2 0
